22	3

10	10	10	

0	0	0	0	3	2	3	4	
3	3	5	2	2	6	7	
6	5	4	3	2	5	6	
6	5	2	2	3	6	7	8	
2	4	1	4	2	9	10	
2	5	5	4	2	9	10	
7	3	5	2	2	9	11	
4	2	4	4	2	11	12	
2	3	2	2	2	13	15	
2	3	2	4	1	14	
1	3	3	2	1	14	
5	4	1	4	2	13	16	
2	1	4	4	1	18	
4	2	2	2	1	18	
3	5	5	4	2	17	19	
6	1	5	4	1	18	
8	4	5	4	1	21	
5	3	2	3	1	20	
2	5	3	3	1	20	
6	2	4	6	1	22	
2	1	6	2	1	22	
0	0	0	0	0	
